c Standarized MaxSat Instance
c{
c "sha1sum": "196a88b0f848176faed0473af4209d01d86a796d",
c "nvars": 45,
c "ncls": 85,
c "total_lits": 188,
c "nhards": 75,
c "nhard_nlits": 178,
c "nhard_len_stats":
c    { "min": 1,
c      "max": 9,
c      "ave": 2.3733,
c      "stddev": 1.2195 },
c "nsofts": 10,
c "nsoft_nlits": 10,
c "nsoft_len_stats":
c    { "min": 1,
c      "max": 1,
c      "ave": 1.0000,
c      "stddev": 0.0000 },
c "nsoft_wts": 1,
c "soft_wt_stats":
c    { "min": 1,
c      "max": 1,
c      "ave": 1.0000,
c      "stddev": 0.0000 }
c}
c------------------------------------------------------------
c Output of pmcnf2wcnf by jpms@ecs.soton.ac.uk
c 
1 -1 0
1 -2 0
1 -3 0
1 -4 0
1 -5 0
1 -6 0
1 -7 0
1 -8 0
1 -9 0
1 -10 0
h 1 0
h 2 0
h 3 0
h 4 0
h 5 0
h 7 0
h 9 0
h -11 6 0
h -12 11 0
h -13 -14 -15 -16 8 0
h -17 13 0
h -18 13 0
h -17 14 0
h 18 14 0
h 19 14 0
h 17 15 0
h -18 15 0
h 12 15 0
h -17 16 0
h -18 16 0
h -12 16 0
h -20 -21 -22 -23 -24 -25 -26 -27 10 0
h -28 20 0
h -29 20 0
h -30 20 0
h -31 20 0
h -32 20 0
h -28 21 0
h 29 21 0
h -30 21 0
h -31 21 0
h -32 21 0
h -28 22 0
h -29 22 0
h -30 22 0
h 31 22 0
h -32 -19 22 0
h 32 19 22 0
h -28 23 0
h 29 23 0
h -30 23 0
h 31 23 0
h -32 19 23 0
h 32 -19 23 0
h 28 24 0
h -29 24 0
h -30 24 0
h -31 24 0
h 12 24 0
h -32 24 0
h -28 25 0
h -29 25 0
h -30 25 0
h -31 25 0
h -12 25 0
h -32 25 0
h -28 -17 26 0
h 28 17 26 0
h -29 26 0
h 30 26 0
h -31 -18 26 0
h 31 18 26 0
h -32 26 0
h -28 17 27 0
h 28 -17 27 0
h -29 27 0
h -30 27 0
h -31 18 27 0
h 31 -18 27 0
h -32 27 0
h -1 -2 -33 -34 -35 -36 0
h -3 -4 -37 -38 -39 0
h -5 -6 -40 -41 -42 -43 0
h -7 -8 -44 -45 0
h -9 -10 0
